NAME : practice
COMMENT : none
TYPE : text
DIMENSION: 10
EDGE_WEIGHT_TYPE : huh?
NODE_COORD_SECTION
  1 2.1 4.23
  2 3 5.2
  3 -1 -3.36
  4 0.6 2
  5 7.9 10.11
  6 12.69 -2.3
  7 3.5 0
  8 -4.6 5.81
  9 5.7 12.0
  10 -3.3 -2.1